/* Objective function */
max: ;

/* Constraints */
R1: +x3 <= 0;
R2: +x4 <= 0;
+x1 +x6 <= 0;
R4: +x5 <= 0;
0 x1 <= 1;
R6: +x2 <= 0;
R7: +x2 <= 0;
0 x1 <= 0;
R9: +x1 <= 0;
R10: +x3 >= 0;
R11: +x4 >= 0;
R12: +x2 >= 1;
R13: +x6 >= 0;
R14: +x1 >= 0;
R15: +x1 >= 0;
R16: +x5 >= 0;
R17: +x2 >= 0;
R18: +x1 >= 0;
R19: +x2 >= 0;
R20: +x3 >= 0;
R21: +x4 >= 0;
R22: +x5 >= 0;
R23: +x6 >= 0;
